NAME: cuum100.tsp
TYPE: TSP
COMMENT: User-generated TSP file
DIMENSION: 100
EDGE_WEIGHT_TYPE: EUC_2D
NODE_COORD_SECTION
1 20.0 9.0
2 15.0 96.0
3 41.0 39.0
4 28.0 1.0
5 3.0 56.0
6 93.0 72.0
7 49.0 61.0
8 63.0 46.0
9 29.0 7.0
10 62.0 63.0
11 21.0 14.0
12 20.0 55.0
13 1.0 59.0
14 25.0 5.0
15 28.0 55.0
16 95.0 100.0
17 10.0 29.0
18 8.0 77.0
19 10.0 17.0
20 12.0 91.0
21 29.0 35.0
22 28.0 2.0
23 2.0 5.0
24 29.0 85.0
25 75.0 84.0
26 18.0 86.0
27 6.0 6.0
28 93.0 18.0
29 79.0 7.0
30 6.0 27.0
31 84.0 13.0
32 25.0 50.0
33 82.0 24.0
34 64.0 67.0
35 71.0 95.0
36 5.0 2.0
37 59.0 4.0
38 48.0 76.0
39 93.0 90.0
40 17.0 95.0
41 42.0 28.0
42 64.0 66.0
43 23.0 5.0
44 56.0 3.0
45 54.0 61.0
46 66.0 60.0
47 96.0 3.0
48 34.0 49.0
49 54.0 90.0
50 51.0 38.0
51 66.0 46.0
52 32.0 72.0
53 72.0 86.0
54 35.0 49.0
55 88.0 2.0
56 91.0 51.0
57 59.0 15.0
58 1.0 52.0
59 97.0 38.0
60 93.0 78.0
61 91.0 38.0
62 4.0 94.0
63 72.0 12.0
64 24.0 26.0
65 3.0 85.0
66 75.0 87.0
67 71.0 83.0
68 37.0 39.0
69 97.0 81.0
70 18.0 16.0
71 52.0 33.0
72 43.0 6.0
73 74.0 2.0
74 42.0 73.0
75 86.0 63.0
76 50.0 60.0
77 29.0 88.0
78 55.0 24.0
79 76.0 51.0
80 34.0 54.0
81 3.0 78.0
82 94.0 84.0
83 37.0 64.0
84 60.0 10.0
85 62.0 40.0
86 36.0 60.0
87 86.0 71.0
88 30.0 59.0
89 2.0 77.0
90 84.0 16.0
91 100.0 39.0
92 28.0 31.0
93 79.0 26.0
94 83.0 69.0
95 76.0 84.0
96 88.0 22.0
97 60.0 56.0
98 36.0 13.0
99 17.0 32.0
100 70.0 43.0
EOF





